n = 34;
lu = [|217, 1091
      |-617, 238
      |-526, 15
      |-124, 612
      |-903, 997
      |-34, 345
      |-760, 336
      |-1121, 949
      |-1110, -761
      |378, 872
      |-1053, 240
      |-945, 876
      |-1061, -195
      |-834, 175
      |-513, 239
      |-855, -484
      |323, 803
      |-816, 48
      |-841, -498
      |-624, 1079
      |648, 872
      |166, 461
      |-1011, 437
      |-73, 712
      |905, 1116
      |-972, -687
      |223, 1089
      |-756, 786
      |-856, 389
      |-346, 507
      |429, 655
      |-1125, -93
      |-259, -147
      |-1083, -448|];
